p cnf 412 589               
-2 -1 -33 0
33 -39 0
-1 34 0
-2 34 0
1 2 -34 0
-34 -3 -35 0
35 -39 0
-3 36 0
-34 36 0
3 34 -36 0
-36 -4 -37 0
37 -39 0
4 36 -38 0
38 -39 0
39 -293 0
-6 -5 -40 0
40 -46 0
-5 41 0
-6 41 0
5 6 -41 0
-41 -7 -42 0
42 -46 0
-7 43 0
-41 43 0
7 41 -43 0
-43 -8 -44 0
44 -46 0
8 43 -45 0
45 -46 0
46 -68 0
-10 -9 -47 0
47 -53 0
-9 48 0
-10 48 0
9 10 -48 0
-48 -11 -49 0
49 -53 0
-11 50 0
-48 50 0
11 48 -50 0
-50 -12 -51 0
51 -53 0
12 50 -52 0
52 -53 0
53 -68 0
-14 -13 -54 0
54 -60 0
-13 55 0
-14 55 0
13 14 -55 0
-55 -15 -56 0
56 -60 0
-15 57 0
-55 57 0
15 55 -57 0
-57 -16 -58 0
58 -60 0
16 57 -59 0
59 -60 0
60 -68 0
-18 -17 -61 0
61 -67 0
-17 62 0
-18 62 0
17 18 -62 0
-62 -19 -63 0
63 -67 0
-19 64 0
-62 64 0
19 62 -64 0
-64 -20 -65 0
65 -67 0
20 64 -66 0
66 -67 0
67 -68 0
68 -293 0
21 -69 0
22 -69 0
23 -69 0
24 -69 0
69 -293 0
-26 -25 -70 0
70 -76 0
-25 71 0
-26 71 0
25 26 -71 0
-71 -27 -72 0
72 -76 0
-27 73 0
-71 73 0
27 71 -73 0
-73 -28 -74 0
74 -76 0
28 73 -75 0
75 -76 0
76 -293 0
-30 -29 -77 0
77 -83 0
-29 78 0
-30 78 0
29 30 -78 0
-78 -31 -79 0
79 -83 0
-31 80 0
-78 80 0
31 78 -80 0
-80 -32 -81 0
81 -83 0
32 80 -82 0
82 -83 0
83 -293 0
21 -88 0
28 -88 0
-21 -28 88 0
88 -105 0
21 -89 0
29 -89 0
-21 -29 89 0
89 -105 0
-88 -89 105 0
-105 129 0
21 -87 0
27 -87 0
-21 -27 87 0
87 -101 0
89 -101 0
-87 -89 101 0
-101 125 0
21 -85 0
25 -85 0
-21 -25 85 0
85 -93 0
89 -93 0
-85 -89 93 0
-93 121 0
21 -86 0
26 -86 0
-21 -26 86 0
86 -97 0
89 -97 0
-86 -89 97 0
-97 121 0
93 97 -121 0
-121 125 0
101 121 -125 0
-125 129 0
105 125 -129 0
129 134 0
85 -96 0
21 -92 0
32 -92 0
-21 -32 92 0
92 -96 0
-85 -92 96 0
-96 111 0
85 -95 0
21 -91 0
31 -91 0
-21 -31 91 0
91 -95 0
-85 -91 95 0
-95 110 0
-93 109 0
85 -94 0
21 -90 0
30 -90 0
-21 -30 90 0
90 -94 0
-85 -90 94 0
-94 109 0
93 94 -109 0
-109 110 0
95 109 -110 0
-110 111 0
96 110 -111 0
111 134 0
-111 -129 133 0
-133 134 0
-134 -135 0
-1 -135 0
135 -292 0
22 -140 0
28 -140 0
-22 -28 140 0
140 -158 0
22 -142 0
30 -142 0
-22 -30 142 0
142 -158 0
-140 -142 158 0
-158 182 0
22 -139 0
27 -139 0
-22 -27 139 0
139 -154 0
142 -154 0
-139 -142 154 0
-154 178 0
22 -137 0
25 -137 0
-22 -25 137 0
137 -146 0
142 -146 0
-137 -142 146 0
-146 174 0
22 -138 0
26 -138 0
-22 -26 138 0
138 -150 0
142 -150 0
-138 -142 150 0
-150 174 0
146 150 -174 0
-174 178 0
154 174 -178 0
-178 182 0
158 178 -182 0
182 186 0
138 -152 0
22 -144 0
32 -144 0
-22 -32 144 0
144 -152 0
-138 -144 152 0
-152 166 0
138 -151 0
22 -143 0
31 -143 0
-22 -31 143 0
143 -151 0
-138 -143 151 0
-151 165 0
138 -149 0
22 -141 0
29 -141 0
-22 -29 141 0
141 -149 0
-138 -141 149 0
-149 164 0
-150 164 0
149 150 -164 0
-164 165 0
151 164 -165 0
-165 166 0
152 165 -166 0
166 186 0
-166 -182 185 0
-185 186 0
-186 -187 0
-2 -187 0
187 -292 0
23 -192 0
28 -192 0
-23 -28 192 0
192 -211 0
23 -195 0
31 -195 0
-23 -31 195 0
195 -211 0
-192 -195 211 0
-211 235 0
23 -191 0
27 -191 0
-23 -27 191 0
191 -207 0
195 -207 0
-191 -195 207 0
-207 231 0
23 -189 0
25 -189 0
-23 -25 189 0
189 -199 0
195 -199 0
-189 -195 199 0
-199 227 0
23 -190 0
26 -190 0
-23 -26 190 0
190 -203 0
195 -203 0
-190 -195 203 0
-203 227 0
199 203 -227 0
-227 231 0
207 227 -231 0
-231 235 0
211 231 -235 0
235 238 0
191 -208 0
23 -196 0
32 -196 0
-23 -32 196 0
196 -208 0
-191 -196 208 0
-208 221 0
-207 220 0
191 -205 0
23 -193 0
29 -193 0
-23 -29 193 0
193 -205 0
-191 -193 205 0
-205 219 0
191 -206 0
23 -194 0
30 -194 0
-23 -30 194 0
194 -206 0
-191 -194 206 0
-206 219 0
205 206 -219 0
-219 220 0
207 219 -220 0
-220 221 0
208 220 -221 0
221 238 0
-221 -235 237 0
-237 238 0
-238 -239 0
-3 -239 0
239 -292 0
24 -244 0
28 -244 0
-24 -28 244 0
244 -264 0
24 -248 0
32 -248 0
-24 -32 248 0
248 -264 0
-244 -248 264 0
-264 288 0
24 -243 0
27 -243 0
-24 -27 243 0
243 -260 0
248 -260 0
-243 -248 260 0
-260 284 0
24 -241 0
25 -241 0
-24 -25 241 0
241 -252 0
248 -252 0
-241 -248 252 0
-252 280 0
24 -242 0
26 -242 0
-24 -26 242 0
242 -256 0
248 -256 0
-242 -248 256 0
-256 280 0
252 256 -280 0
-280 284 0
260 280 -284 0
-284 288 0
264 284 -288 0
288 290 0
-264 276 0
244 -263 0
24 -247 0
31 -247 0
-24 -31 247 0
247 -263 0
-244 -247 263 0
-263 275 0
244 -261 0
24 -245 0
29 -245 0
-24 -29 245 0
245 -261 0
-244 -245 261 0
-261 274 0
244 -262 0
24 -246 0
30 -246 0
-24 -30 246 0
246 -262 0
-244 -246 262 0
-262 274 0
261 262 -274 0
-274 275 0
263 274 -275 0
-275 276 0
264 275 -276 0
276 290 0
-276 -288 289 0
-289 290 0
-290 -291 0
-4 -291 0
291 -292 0
292 -293 0
-1 2 -294 0
294 -332 0
-1 -2 295 0
1 2 295 0
-2 2 295 0
-25 26 -296 0
-295 296 -297 0
297 -332 0
-25 -26 298 0
25 26 298 0
-26 26 298 0
-295 -298 299 0
-29 30 -300 0
-299 300 -301 0
301 -332 0
-29 -30 302 0
29 30 302 0
-30 30 302 0
-299 -302 303 0
-5 10 -304 0
-303 304 -305 0
305 -332 0
-5 -10 306 0
5 10 306 0
-10 10 306 0
-303 -306 307 0
-6 9 -308 0
-307 308 -309 0
309 -332 0
-6 -9 310 0
6 9 310 0
-9 9 310 0
-307 -310 311 0
-7 11 -312 0
-311 312 -313 0
313 -332 0
-7 -11 314 0
7 11 314 0
-11 11 314 0
-311 -314 315 0
-8 12 -316 0
-315 316 -317 0
317 -332 0
-8 -12 318 0
8 12 318 0
-12 12 318 0
-315 -318 319 0
-13 14 -320 0
-319 320 -321 0
321 -332 0
-13 -14 322 0
13 14 322 0
-14 14 322 0
-319 -322 323 0
-17 18 -324 0
-323 324 -325 0
325 -332 0
-17 -18 326 0
17 18 326 0
-18 18 326 0
-323 -326 327 0
-21 22 -328 0
-327 328 -329 0
329 -332 0
332 -411 0
-2 3 -333 0
333 -371 0
-2 -3 334 0
2 3 334 0
-3 3 334 0
-26 27 -335 0
-334 335 -336 0
336 -371 0
-26 -27 337 0
26 27 337 0
-27 27 337 0
-334 -337 338 0
-30 31 -339 0
-338 339 -340 0
340 -371 0
-30 -31 341 0
30 31 341 0
-31 31 341 0
-338 -341 342 0
-6 7 -343 0
-342 343 -344 0
344 -371 0
-6 -7 345 0
6 7 345 0
-7 7 345 0
-342 -345 346 0
-9 13 -347 0
-346 347 -348 0
348 -371 0
-9 -13 349 0
9 13 349 0
-13 13 349 0
-346 -349 350 0
-10 15 -351 0
-350 351 -352 0
352 -371 0
-10 -15 353 0
10 15 353 0
-15 15 353 0
-350 -353 354 0
-11 14 -355 0
-354 355 -356 0
356 -371 0
-11 -14 357 0
11 14 357 0
-14 14 357 0
-354 -357 358 0
-12 16 -359 0
-358 359 -360 0
360 -371 0
-12 -16 361 0
12 16 361 0
-16 16 361 0
-358 -361 362 0
-18 19 -363 0
-362 363 -364 0
364 -371 0
-18 -19 365 0
18 19 365 0
-19 19 365 0
-362 -365 366 0
-22 23 -367 0
-366 367 -368 0
368 -371 0
371 -411 0
-3 4 -372 0
372 -410 0
-3 -4 373 0
3 4 373 0
-4 4 373 0
-27 28 -374 0
-373 374 -375 0
375 -410 0
-27 -28 376 0
27 28 376 0
-28 28 376 0
-373 -376 377 0
-31 32 -378 0
-377 378 -379 0
379 -410 0
-31 -32 380 0
31 32 380 0
-32 32 380 0
-377 -380 381 0
-7 8 -382 0
-381 382 -383 0
383 -410 0
-7 -8 384 0
7 8 384 0
-8 8 384 0
-381 -384 385 0
-11 12 -386 0
-385 386 -387 0
387 -410 0
-11 -12 388 0
11 12 388 0
-12 12 388 0
-385 -388 389 0
-13 17 -390 0
-389 390 -391 0
391 -410 0
-13 -17 392 0
13 17 392 0
-17 17 392 0
-389 -392 393 0
-14 18 -394 0
-393 394 -395 0
395 -410 0
-14 -18 396 0
14 18 396 0
-18 18 396 0
-393 -396 397 0
-15 20 -398 0
-397 398 -399 0
399 -410 0
-15 -20 400 0
15 20 400 0
-20 20 400 0
-397 -400 401 0
-16 19 -402 0
-401 402 -403 0
403 -410 0
-16 -19 404 0
16 19 404 0
-19 19 404 0
-401 -404 405 0
-23 24 -406 0
-405 406 -407 0
407 -410 0
410 -411 0
293 0
411 0
